p cnf 144 1
144 0
w 1 0.167542
w 2 1 1
w 2 -1 0
w 3 2 0
w 3 -2 1
w 4 3 0.398314
w 4 -3 0.167645
w 5 4 0
w 5 -4 1
w 6 5 1
w 6 -5 0
w 7 6 0
w 7 -6 1
w 8 7 0
w 8 -7 1
w 9 8 0
w 9 -8 1
w 10 9 1
w 10 -9 0
w 11 10 0
w 11 -10 1
w 12 11 1
w 12 -11 0
w 13 1 0
w 13 -1 1
w 14 13 2 0.0875006
w 14 13 -2 0.725488
w 14 -13 2 0.0157026
w 14 -13 -2 0.113072
w 15 14 3 0
w 15 14 -3 1
w 15 -14 3 1
w 15 -14 -3 1
w 16 15 4 0.059854
w 16 15 -4 0.428416
w 16 -15 4 0.336008
w 16 -15 -4 0.163891
w 17 16 5 0.367059
w 17 16 -5 0.5391
w 17 -16 5 0.293912
w 17 -16 -5 0.558994
w 18 17 6 0
w 18 17 -6 0
w 18 -17 6 1
w 18 -17 -6 1
w 19 18 7 1
w 19 18 -7 0
w 19 -18 7 0
w 19 -18 -7 1
w 20 19 8 1
w 20 19 -8 0
w 20 -19 8 1
w 20 -19 -8 0
w 21 20 9 0
w 21 20 -9 1
w 21 -20 9 0
w 21 -20 -9 0
w 22 21 10 0.00471651
w 22 21 -10 0.823752
w 22 -21 10 0.333483
w 22 -21 -10 0.340725
w 23 22 11 0.262237
w 23 22 -11 0.707784
w 23 -22 11 0.526742
w 23 -22 -11 0.556149
w 24 23 12 1
w 24 23 -12 1
w 24 -23 12 0
w 24 -23 -12 0
w 25 13 0
w 25 -13 1
w 26 25 14 0
w 26 25 -14 0
w 26 -25 14 1
w 26 -25 -14 1
w 27 26 15 1
w 27 26 -15 0
w 27 -26 15 0
w 27 -26 -15 0
w 28 27 16 1
w 28 27 -16 0
w 28 -27 16 1
w 28 -27 -16 1
w 29 28 17 1
w 29 28 -17 1
w 29 -28 17 0
w 29 -28 -17 1
w 30 29 18 0
w 30 29 -18 0
w 30 -29 18 0
w 30 -29 -18 1
w 31 30 19 0
w 31 30 -19 1
w 31 -30 19 1
w 31 -30 -19 0
w 32 31 20 0.924866
w 32 31 -20 0.0249278
w 32 -31 20 0.392061
w 32 -31 -20 0.383655
w 33 32 21 1
w 33 32 -21 1
w 33 -32 21 1
w 33 -32 -21 0
w 34 33 22 0.189463
w 34 33 -22 0.280329
w 34 -33 22 0.425482
w 34 -33 -22 0.638911
w 35 34 23 0
w 35 34 -23 1
w 35 -34 23 1
w 35 -34 -23 1
w 36 35 24 0.772029
w 36 35 -24 0.00280784
w 36 -35 24 0.691778
w 36 -35 -24 0.860908
w 37 25 0
w 37 -25 1
w 38 37 26 1
w 38 37 -26 0
w 38 -37 26 1
w 38 -37 -26 1
w 39 38 27 0
w 39 38 -27 0
w 39 -38 27 1
w 39 -38 -27 1
w 40 39 28 0
w 40 39 -28 0
w 40 -39 28 1
w 40 -39 -28 0
w 41 40 29 0
w 41 40 -29 1
w 41 -40 29 0
w 41 -40 -29 0
w 42 41 30 1
w 42 41 -30 1
w 42 -41 30 1
w 42 -41 -30 0
w 43 42 31 1
w 43 42 -31 1
w 43 -42 31 1
w 43 -42 -31 0
w 44 43 32 1
w 44 43 -32 1
w 44 -43 32 1
w 44 -43 -32 0
w 45 44 33 1
w 45 44 -33 0
w 45 -44 33 0
w 45 -44 -33 0
w 46 45 34 0.763313
w 46 45 -34 0.582161
w 46 -45 34 0.582937
w 46 -45 -34 0.761486
w 47 46 35 1
w 47 46 -35 0
w 47 -46 35 0
w 47 -46 -35 0
w 48 47 36 1
w 48 47 -36 0
w 48 -47 36 1
w 48 -47 -36 1
w 49 37 0
w 49 -37 1
w 50 49 38 0
w 50 49 -38 0
w 50 -49 38 0
w 50 -49 -38 1
w 51 50 39 1
w 51 50 -39 1
w 51 -50 39 1
w 51 -50 -39 0
w 52 51 40 0.13666
w 52 51 -40 0.228139
w 52 -51 40 0.885404
w 52 -51 -40 0.899973
w 53 52 41 0
w 53 52 -41 0
w 53 -52 41 1
w 53 -52 -41 0
w 54 53 42 1
w 54 53 -42 0
w 54 -53 42 1
w 54 -53 -42 0
w 55 54 43 1
w 55 54 -43 1
w 55 -54 43 1
w 55 -54 -43 0
w 56 55 44 1
w 56 55 -44 0
w 56 -55 44 0
w 56 -55 -44 1
w 57 56 45 0.235529
w 57 56 -45 0.257255
w 57 -56 45 0.602908
w 57 -56 -45 0.417586
w 58 57 46 0.539617
w 58 57 -46 0.554247
w 58 -57 46 0.13511
w 58 -57 -46 0.425021
w 59 58 47 1
w 59 58 -47 0
w 59 -58 47 1
w 59 -58 -47 0
w 60 59 48 1
w 60 59 -48 1
w 60 -59 48 1
w 60 -59 -48 0
w 61 49 1
w 61 -49 0
w 62 61 50 1
w 62 61 -50 0
w 62 -61 50 1
w 62 -61 -50 1
w 63 62 51 0
w 63 62 -51 0
w 63 -62 51 1
w 63 -62 -51 0
w 64 63 52 1
w 64 63 -52 1
w 64 -63 52 0
w 64 -63 -52 0
w 65 64 53 0
w 65 64 -53 0
w 65 -64 53 1
w 65 -64 -53 0
w 66 65 54 0
w 66 65 -54 0
w 66 -65 54 0
w 66 -65 -54 1
w 67 66 55 0
w 67 66 -55 0
w 67 -66 55 0
w 67 -66 -55 1
w 68 67 56 0
w 68 67 -56 1
w 68 -67 56 1
w 68 -67 -56 0
w 69 68 57 0.0197919
w 69 68 -57 0.874559
w 69 -68 57 0.253239
w 69 -68 -57 0.819577
w 70 69 58 0
w 70 69 -58 1
w 70 -69 58 0
w 70 -69 -58 1
w 71 70 59 0
w 71 70 -59 1
w 71 -70 59 0
w 71 -70 -59 0
w 72 71 60 0
w 72 71 -60 0
w 72 -71 60 1
w 72 -71 -60 0
w 73 61 0
w 73 -61 1
w 74 73 62 0
w 74 73 -62 0
w 74 -73 62 0
w 74 -73 -62 1
w 75 74 63 1
w 75 74 -63 0
w 75 -74 63 0
w 75 -74 -63 0
w 76 75 64 0.969348
w 76 75 -64 0.549725
w 76 -75 64 0.743098
w 76 -75 -64 0.24165
w 77 76 65 1
w 77 76 -65 0
w 77 -76 65 0
w 77 -76 -65 1
w 78 77 66 0
w 78 77 -66 1
w 78 -77 66 0
w 78 -77 -66 0
w 79 78 67 0
w 79 78 -67 1
w 79 -78 67 0
w 79 -78 -67 0
w 80 79 68 0
w 80 79 -68 1
w 80 -79 68 0
w 80 -79 -68 0
w 81 80 69 0
w 81 80 -69 1
w 81 -80 69 0
w 81 -80 -69 1
w 82 81 70 0.151527
w 82 81 -70 0.4456
w 82 -81 70 0.543373
w 82 -81 -70 0.894625
w 83 82 71 1
w 83 82 -71 1
w 83 -82 71 1
w 83 -82 -71 0
w 84 83 72 1
w 84 83 -72 0
w 84 -83 72 1
w 84 -83 -72 1
w 85 73 0
w 85 -73 1
w 86 85 74 0.850908
w 86 85 -74 0.343297
w 86 -85 74 0.314565
w 86 -85 -74 0.394516
w 87 86 75 1
w 87 86 -75 1
w 87 -86 75 0
w 87 -86 -75 1
w 88 87 76 0
w 88 87 -76 1
w 88 -87 76 0
w 88 -87 -76 0
w 89 88 77 1
w 89 88 -77 0
w 89 -88 77 0
w 89 -88 -77 0
w 90 89 78 0.890042
w 90 89 -78 0.721879
w 90 -89 78 0.776552
w 90 -89 -78 0.0519563
w 91 90 79 0
w 91 90 -79 0
w 91 -90 79 1
w 91 -90 -79 1
w 92 91 80 1
w 92 91 -80 1
w 92 -91 80 1
w 92 -91 -80 0
w 93 92 81 0.544027
w 93 92 -81 0.856606
w 93 -92 81 0.666241
w 93 -92 -81 0.0806785
w 94 93 82 0.0487255
w 94 93 -82 0.845336
w 94 -93 82 0.617611
w 94 -93 -82 0.424858
w 95 94 83 1
w 95 94 -83 0
w 95 -94 83 1
w 95 -94 -83 1
w 96 95 84 0
w 96 95 -84 1
w 96 -95 84 1
w 96 -95 -84 0
w 97 85 0
w 97 -85 1
w 98 97 86 0
w 98 97 -86 1
w 98 -97 86 1
w 98 -97 -86 1
w 99 98 87 1
w 99 98 -87 0
w 99 -98 87 0
w 99 -98 -87 1
w 100 99 88 0
w 100 99 -88 1
w 100 -99 88 0
w 100 -99 -88 0
w 101 100 89 0
w 101 100 -89 1
w 101 -100 89 0
w 101 -100 -89 1
w 102 101 90 0.151392
w 102 101 -90 0.592956
w 102 -101 90 0.371
w 102 -101 -90 0.461446
w 103 102 91 1
w 103 102 -91 1
w 103 -102 91 0
w 103 -102 -91 1
w 104 103 92 1
w 104 103 -92 0
w 104 -103 92 0
w 104 -103 -92 0
w 105 104 93 0.301601
w 105 104 -93 0.864318
w 105 -104 93 0.756486
w 105 -104 -93 0.0842398
w 106 105 94 1
w 106 105 -94 1
w 106 -105 94 0
w 106 -105 -94 0
w 107 106 95 1
w 107 106 -95 0
w 107 -106 95 1
w 107 -106 -95 1
w 108 107 96 0
w 108 107 -96 1
w 108 -107 96 1
w 108 -107 -96 0
w 109 97 0
w 109 -97 1
w 110 109 98 0
w 110 109 -98 0
w 110 -109 98 1
w 110 -109 -98 1
w 111 110 99 1
w 111 110 -99 1
w 111 -110 99 0
w 111 -110 -99 0
w 112 111 100 1
w 112 111 -100 1
w 112 -111 100 1
w 112 -111 -100 0
w 113 112 101 0
w 113 112 -101 1
w 113 -112 101 1
w 113 -112 -101 0
w 114 113 102 1
w 114 113 -102 0
w 114 -113 102 1
w 114 -113 -102 1
w 115 114 103 0
w 115 114 -103 1
w 115 -114 103 1
w 115 -114 -103 0
w 116 115 104 1
w 116 115 -104 1
w 116 -115 104 1
w 116 -115 -104 0
w 117 116 105 0
w 117 116 -105 1
w 117 -116 105 0
w 117 -116 -105 1
w 118 117 106 0
w 118 117 -106 0
w 118 -117 106 0
w 118 -117 -106 1
w 119 118 107 1
w 119 118 -107 0
w 119 -118 107 0
w 119 -118 -107 1
w 120 119 108 1
w 120 119 -108 0
w 120 -119 108 1
w 120 -119 -108 0
w 121 109 1
w 121 -109 0
w 122 121 110 0
w 122 121 -110 0
w 122 -121 110 1
w 122 -121 -110 0
w 123 122 111 0
w 123 122 -111 0
w 123 -122 111 1
w 123 -122 -111 1
w 124 123 112 0
w 124 123 -112 0
w 124 -123 112 1
w 124 -123 -112 0
w 125 124 113 0
w 125 124 -113 0
w 125 -124 113 1
w 125 -124 -113 0
w 126 125 114 1
w 126 125 -114 1
w 126 -125 114 0
w 126 -125 -114 1
w 127 126 115 1
w 127 126 -115 1
w 127 -126 115 1
w 127 -126 -115 0
w 128 127 116 1
w 128 127 -116 1
w 128 -127 116 1
w 128 -127 -116 0
w 129 128 117 0
w 129 128 -117 1
w 129 -128 117 0
w 129 -128 -117 0
w 130 129 118 0
w 130 129 -118 0
w 130 -129 118 1
w 130 -129 -118 1
w 131 130 119 0
w 131 130 -119 1
w 131 -130 119 0
w 131 -130 -119 0
w 132 131 120 1
w 132 131 -120 1
w 132 -131 120 0
w 132 -131 -120 0
w 133 121 0.417756
w 133 -121 0.258591
w 134 133 122 0
w 134 133 -122 1
w 134 -133 122 0
w 134 -133 -122 1
w 135 134 123 1
w 135 134 -123 1
w 135 -134 123 0
w 135 -134 -123 1
w 136 135 124 0
w 136 135 -124 1
w 136 -135 124 0
w 136 -135 -124 1
w 137 136 125 0
w 137 136 -125 0
w 137 -136 125 1
w 137 -136 -125 0
w 138 137 126 1
w 138 137 -126 0
w 138 -137 126 0
w 138 -137 -126 0
w 139 138 127 0
w 139 138 -127 1
w 139 -138 127 1
w 139 -138 -127 0
w 140 139 128 1
w 140 139 -128 0
w 140 -139 128 0
w 140 -139 -128 1
w 141 140 129 1
w 141 140 -129 1
w 141 -140 129 0
w 141 -140 -129 1
w 142 141 130 1
w 142 141 -130 0
w 142 -141 130 1
w 142 -141 -130 0
w 143 142 131 1
w 143 142 -131 0
w 143 -142 131 1
w 143 -142 -131 1
w 144 143 132 0
w 144 143 -132 1
w 144 -143 132 0
w 144 -143 -132 0